(declare-fun limit_ack!127 () (_ BitVec 64))
(declare-fun epsabs_ack!125 () (_ BitVec 64))
(declare-fun epsrel_ack!126 () (_ BitVec 64))
(assert (not (bvult #x00000000000003e8 limit_ack!127)))
(assert (fp.leq ((_ to_fp 11 53) epsabs_ack!125) ((_ to_fp 11 53) #x0000000000000000)))
(assert (not (fp.lt ((_ to_fp 11 53) epsrel_ack!126)
            ((_ to_fp 11 53) #x3d09000000000000))))
(assert (not (fp.lt ((_ to_fp 11 53) epsrel_ack!126)
            ((_ to_fp 11 53) #x3a0fb0f6be506019))))

(check-sat)
(exit)
